Minimize
 obj: + y_0 + y_1 + y_2 + y_3 + y_4 + y_5
Subject To
c0: + x0_0+ x0_1+ x0_2+ x0_3+ x0_4+ x0_5 = 1
c1: + x1_0+ x1_1+ x1_2+ x1_3+ x1_4+ x1_5 = 1
c2: + x2_0+ x2_1+ x2_2+ x2_3+ x2_4+ x2_5 = 1
c3: + x3_0+ x3_1+ x3_2+ x3_3+ x3_4+ x3_5 = 1
c4: + x4_0+ x4_1+ x4_2+ x4_3+ x4_4+ x4_5 = 1
c5: + x5_0+ x5_1+ x5_2+ x5_3+ x5_4+ x5_5 = 1
c6: + x6_0+ x6_1+ x6_2+ x6_3+ x6_4+ x6_5 = 1
c7: + x7_0+ x7_1+ x7_2+ x7_3+ x7_4+ x7_5 = 1
c8: + x8_0+ x8_1+ x8_2+ x8_3+ x8_4+ x8_5 = 1
c9: + x9_0+ x9_1+ x9_2+ x9_3+ x9_4+ x9_5 = 1
c10: + x10_0+ x10_1+ x10_2+ x10_3+ x10_4+ x10_5 = 1


c11: + x0_0 - y_0 <= 0
c12: + x0_1 - y_1 <= 0
c13: + x0_2 - y_2 <= 0
c14: + x0_3 - y_3 <= 0
c15: + x0_4 - y_4 <= 0
c16: + x0_5 - y_5 <= 0
c17: + x1_0 - y_0 <= 0
c18: + x1_1 - y_1 <= 0
c19: + x1_2 - y_2 <= 0
c20: + x1_3 - y_3 <= 0
c21: + x1_4 - y_4 <= 0
c22: + x1_5 - y_5 <= 0
c23: + x2_0 - y_0 <= 0
c24: + x2_1 - y_1 <= 0
c25: + x2_2 - y_2 <= 0
c26: + x2_3 - y_3 <= 0
c27: + x2_4 - y_4 <= 0
c28: + x2_5 - y_5 <= 0
c29: + x3_0 - y_0 <= 0
c30: + x3_1 - y_1 <= 0
c31: + x3_2 - y_2 <= 0
c32: + x3_3 - y_3 <= 0
c33: + x3_4 - y_4 <= 0
c34: + x3_5 - y_5 <= 0
c35: + x4_0 - y_0 <= 0
c36: + x4_1 - y_1 <= 0
c37: + x4_2 - y_2 <= 0
c38: + x4_3 - y_3 <= 0
c39: + x4_4 - y_4 <= 0
c40: + x4_5 - y_5 <= 0
c41: + x5_0 - y_0 <= 0
c42: + x5_1 - y_1 <= 0
c43: + x5_2 - y_2 <= 0
c44: + x5_3 - y_3 <= 0
c45: + x5_4 - y_4 <= 0
c46: + x5_5 - y_5 <= 0
c47: + x6_0 - y_0 <= 0
c48: + x6_1 - y_1 <= 0
c49: + x6_2 - y_2 <= 0
c50: + x6_3 - y_3 <= 0
c51: + x6_4 - y_4 <= 0
c52: + x6_5 - y_5 <= 0
c53: + x7_0 - y_0 <= 0
c54: + x7_1 - y_1 <= 0
c55: + x7_2 - y_2 <= 0
c56: + x7_3 - y_3 <= 0
c57: + x7_4 - y_4 <= 0
c58: + x7_5 - y_5 <= 0
c59: + x8_0 - y_0 <= 0
c60: + x8_1 - y_1 <= 0
c61: + x8_2 - y_2 <= 0
c62: + x8_3 - y_3 <= 0
c63: + x8_4 - y_4 <= 0
c64: + x8_5 - y_5 <= 0
c65: + x9_0 - y_0 <= 0
c66: + x9_1 - y_1 <= 0
c67: + x9_2 - y_2 <= 0
c68: + x9_3 - y_3 <= 0
c69: + x9_4 - y_4 <= 0
c70: + x9_5 - y_5 <= 0
c71: + x10_0 - y_0 <= 0
c72: + x10_1 - y_1 <= 0
c73: + x10_2 - y_2 <= 0
c74: + x10_3 - y_3 <= 0
c75: + x10_4 - y_4 <= 0
c76: + x10_5 - y_5 <= 0


c77:  + x5_0 + x10_0 - y_0 <= 0
c78:  + x0_0 + x1_0 - y_0 <= 0
c79:  + x1_0 + x2_0 - y_0 <= 0
c80:  + x0_0 + x3_0 - y_0 <= 0
c81:  + x2_0 + x4_0 - y_0 <= 0
c82:  + x6_0 + x10_0 - y_0 <= 0
c83:  + x3_0 + x4_0 - y_0 <= 0
c84:  + x1_0 + x7_0 - y_0 <= 0
c85:  + x0_0 + x8_0 - y_0 <= 0
c86:  + x2_0 + x9_0 - y_0 <= 0
c87:  + x7_0 + x10_0 - y_0 <= 0
c88:  + x3_0 + x5_0 - y_0 <= 0
c89:  + x4_0 + x7_0 - y_0 <= 0
c90:  + x0_0 + x6_0 - y_0 <= 0
c91:  + x4_0 + x8_0 - y_0 <= 0
c92:  + x3_0 + x9_0 - y_0 <= 0
c93:  + x8_0 + x10_0 - y_0 <= 0
c94:  + x1_0 + x5_0 - y_0 <= 0
c95:  + x2_0 + x6_0 - y_0 <= 0
c96:  + x9_0 + x10_0 - y_0 <= 0

c97:  + x5_1 + x10_1 - y_1 <= 0
c98:  + x0_1 + x1_1 - y_1 <= 0
c99:  + x1_1 + x2_1 - y_1 <= 0
c100:  + x0_1 + x3_1 - y_1 <= 0
c101:  + x2_1 + x4_1 - y_1 <= 0
c102:  + x6_1 + x10_1 - y_1 <= 0
c103:  + x3_1 + x4_1 - y_1 <= 0
c104:  + x1_1 + x7_1 - y_1 <= 0
c105:  + x0_1 + x8_1 - y_1 <= 0
c106:  + x2_1 + x9_1 - y_1 <= 0
c107:  + x7_1 + x10_1 - y_1 <= 0
c108:  + x3_1 + x5_1 - y_1 <= 0
c109:  + x4_1 + x7_1 - y_1 <= 0
c110:  + x0_1 + x6_1 - y_1 <= 0
c111:  + x4_1 + x8_1 - y_1 <= 0
c112:  + x3_1 + x9_1 - y_1 <= 0
c113:  + x8_1 + x10_1 - y_1 <= 0
c114:  + x1_1 + x5_1 - y_1 <= 0
c115:  + x2_1 + x6_1 - y_1 <= 0
c116:  + x9_1 + x10_1 - y_1 <= 0

c117:  + x5_2 + x10_2 - y_2 <= 0
c118:  + x0_2 + x1_2 - y_2 <= 0
c119:  + x1_2 + x2_2 - y_2 <= 0
c120:  + x0_2 + x3_2 - y_2 <= 0
c121:  + x2_2 + x4_2 - y_2 <= 0
c122:  + x6_2 + x10_2 - y_2 <= 0
c123:  + x3_2 + x4_2 - y_2 <= 0
c124:  + x1_2 + x7_2 - y_2 <= 0
c125:  + x0_2 + x8_2 - y_2 <= 0
c126:  + x2_2 + x9_2 - y_2 <= 0
c127:  + x7_2 + x10_2 - y_2 <= 0
c128:  + x3_2 + x5_2 - y_2 <= 0
c129:  + x4_2 + x7_2 - y_2 <= 0
c130:  + x0_2 + x6_2 - y_2 <= 0
c131:  + x4_2 + x8_2 - y_2 <= 0
c132:  + x3_2 + x9_2 - y_2 <= 0
c133:  + x8_2 + x10_2 - y_2 <= 0
c134:  + x1_2 + x5_2 - y_2 <= 0
c135:  + x2_2 + x6_2 - y_2 <= 0
c136:  + x9_2 + x10_2 - y_2 <= 0

c137:  + x5_3 + x10_3 - y_3 <= 0
c138:  + x0_3 + x1_3 - y_3 <= 0
c139:  + x1_3 + x2_3 - y_3 <= 0
c140:  + x0_3 + x3_3 - y_3 <= 0
c141:  + x2_3 + x4_3 - y_3 <= 0
c142:  + x6_3 + x10_3 - y_3 <= 0
c143:  + x3_3 + x4_3 - y_3 <= 0
c144:  + x1_3 + x7_3 - y_3 <= 0
c145:  + x0_3 + x8_3 - y_3 <= 0
c146:  + x2_3 + x9_3 - y_3 <= 0
c147:  + x7_3 + x10_3 - y_3 <= 0
c148:  + x3_3 + x5_3 - y_3 <= 0
c149:  + x4_3 + x7_3 - y_3 <= 0
c150:  + x0_3 + x6_3 - y_3 <= 0
c151:  + x4_3 + x8_3 - y_3 <= 0
c152:  + x3_3 + x9_3 - y_3 <= 0
c153:  + x8_3 + x10_3 - y_3 <= 0
c154:  + x1_3 + x5_3 - y_3 <= 0
c155:  + x2_3 + x6_3 - y_3 <= 0
c156:  + x9_3 + x10_3 - y_3 <= 0

c157:  + x5_4 + x10_4 - y_4 <= 0
c158:  + x0_4 + x1_4 - y_4 <= 0
c159:  + x1_4 + x2_4 - y_4 <= 0
c160:  + x0_4 + x3_4 - y_4 <= 0
c161:  + x2_4 + x4_4 - y_4 <= 0
c162:  + x6_4 + x10_4 - y_4 <= 0
c163:  + x3_4 + x4_4 - y_4 <= 0
c164:  + x1_4 + x7_4 - y_4 <= 0
c165:  + x0_4 + x8_4 - y_4 <= 0
c166:  + x2_4 + x9_4 - y_4 <= 0
c167:  + x7_4 + x10_4 - y_4 <= 0
c168:  + x3_4 + x5_4 - y_4 <= 0
c169:  + x4_4 + x7_4 - y_4 <= 0
c170:  + x0_4 + x6_4 - y_4 <= 0
c171:  + x4_4 + x8_4 - y_4 <= 0
c172:  + x3_4 + x9_4 - y_4 <= 0
c173:  + x8_4 + x10_4 - y_4 <= 0
c174:  + x1_4 + x5_4 - y_4 <= 0
c175:  + x2_4 + x6_4 - y_4 <= 0
c176:  + x9_4 + x10_4 - y_4 <= 0

c177:  + x5_5 + x10_5 - y_5 <= 0
c178:  + x0_5 + x1_5 - y_5 <= 0
c179:  + x1_5 + x2_5 - y_5 <= 0
c180:  + x0_5 + x3_5 - y_5 <= 0
c181:  + x2_5 + x4_5 - y_5 <= 0
c182:  + x6_5 + x10_5 - y_5 <= 0
c183:  + x3_5 + x4_5 - y_5 <= 0
c184:  + x1_5 + x7_5 - y_5 <= 0
c185:  + x0_5 + x8_5 - y_5 <= 0
c186:  + x2_5 + x9_5 - y_5 <= 0
c187:  + x7_5 + x10_5 - y_5 <= 0
c188:  + x3_5 + x5_5 - y_5 <= 0
c189:  + x4_5 + x7_5 - y_5 <= 0
c190:  + x0_5 + x6_5 - y_5 <= 0
c191:  + x4_5 + x8_5 - y_5 <= 0
c192:  + x3_5 + x9_5 - y_5 <= 0
c193:  + x8_5 + x10_5 - y_5 <= 0
c194:  + x1_5 + x5_5 - y_5 <= 0
c195:  + x2_5 + x6_5 - y_5 <= 0
c196:  + x9_5 + x10_5 - y_5 <= 0



c197: - x0 + x0_0 + x0_1 + x0_2 + x0_3 + x0_4 + x0_5 = 0 
c198: - x1 + x1_0 + x1_1 + x1_2 + x1_3 + x1_4 + x1_5 = 0 
c199: - x2 + x2_0 + x2_1 + x2_2 + x2_3 + x2_4 + x2_5 = 0 
c200: - x3 + x3_0 + x3_1 + x3_2 + x3_3 + x3_4 + x3_5 = 0 
c201: - x4 + x4_0 + x4_1 + x4_2 + x4_3 + x4_4 + x4_5 = 0 
c202: - x5 + x5_0 + x5_1 + x5_2 + x5_3 + x5_4 + x5_5 = 0 
c203: - x6 + x6_0 + x6_1 + x6_2 + x6_3 + x6_4 + x6_5 = 0 
c204: - x7 + x7_0 + x7_1 + x7_2 + x7_3 + x7_4 + x7_5 = 0 
c205: - x8 + x8_0 + x8_1 + x8_2 + x8_3 + x8_4 + x8_5 = 0 
c206: - x9 + x9_0 + x9_1 + x9_2 + x9_3 + x9_4 + x9_5 = 0 
c207: - x10 + x10_0 + x10_1 + x10_2 + x10_3 + x10_4 + x10_5 = 0 


c208:  + x0_0 + x1_0 + x2_0 + x3_0 + x4_0 + x5_0 + x6_0 + x7_0 + x8_0 + x9_0 + x10_0 - (+ x0_1 + x1_1 + x2_1 + x3_1 + x4_1 + x5_1 + x6_1 + x7_1 + x8_1 + x9_1 + x10_1) >= 0
c209:  + x0_1 + x1_1 + x2_1 + x3_1 + x4_1 + x5_1 + x6_1 + x7_1 + x8_1 + x9_1 + x10_1 - (+ x0_2 + x1_2 + x2_2 + x3_2 + x4_2 + x5_2 + x6_2 + x7_2 + x8_2 + x9_2 + x10_2) >= 0
c210:  + x0_2 + x1_2 + x2_2 + x3_2 + x4_2 + x5_2 + x6_2 + x7_2 + x8_2 + x9_2 + x10_2 - (+ x0_3 + x1_3 + x2_3 + x3_3 + x4_3 + x5_3 + x6_3 + x7_3 + x8_3 + x9_3 + x10_3) >= 0
c211:  + x0_3 + x1_3 + x2_3 + x3_3 + x4_3 + x5_3 + x6_3 + x7_3 + x8_3 + x9_3 + x10_3 - (+ x0_4 + x1_4 + x2_4 + x3_4 + x4_4 + x5_4 + x6_4 + x7_4 + x8_4 + x9_4 + x10_4) >= 0
c212:  + x0_4 + x1_4 + x2_4 + x3_4 + x4_4 + x5_4 + x6_4 + x7_4 + x8_4 + x9_4 + x10_4 - (+ x0_5 + x1_5 + x2_5 + x3_5 + x4_5 + x5_5 + x6_5 + x7_5 + x8_5 + x9_5 + x10_5) >= 0



Binary
y_0
x0_0
x1_0
x2_0
x3_0
x4_0
x5_0
x6_0
x7_0
x8_0
x9_0
x10_0

y_1
x0_1
x1_1
x2_1
x3_1
x4_1
x5_1
x6_1
x7_1
x8_1
x9_1
x10_1

y_2
x0_2
x1_2
x2_2
x3_2
x4_2
x5_2
x6_2
x7_2
x8_2
x9_2
x10_2

y_3
x0_3
x1_3
x2_3
x3_3
x4_3
x5_3
x6_3
x7_3
x8_3
x9_3
x10_3

y_4
x0_4
x1_4
x2_4
x3_4
x4_4
x5_4
x6_4
x7_4
x8_4
x9_4
x10_4

y_5
x0_5
x1_5
x2_5
x3_5
x4_5
x5_5
x6_5
x7_5
x8_5
x9_5
x10_5


End